(set-info :smt-lib-version 2.6)
(set-logic UF)
(set-info :source |Benchmarks from the paper: "Extending Sledgehammer with SMT Solvers" by Jasmin Blanchette, Sascha Bohme, and Lawrence C. Paulson, CADE 2011.  Translated to SMT2 by Andrew Reynolds and Morgan Deters.|)
(set-info :category "industrial")
(set-info :status unsat)
(declare-sort S1 0)
(declare-sort S2 0)
(declare-sort S3 0)
(declare-sort S4 0)
(declare-sort S5 0)
(declare-sort S6 0)
(declare-sort S7 0)
(declare-sort S8 0)
(declare-sort S9 0)
(declare-sort S10 0)
(declare-sort S11 0)
(declare-sort S12 0)
(declare-sort S13 0)
(declare-sort S14 0)
(declare-sort S15 0)
(declare-sort S16 0)
(declare-sort S17 0)
(declare-sort S18 0)
(declare-sort S19 0)
(declare-sort S20 0)
(declare-sort S21 0)
(declare-sort S22 0)
(declare-sort S23 0)
(declare-sort S24 0)
(declare-sort S25 0)
(declare-sort S26 0)
(declare-sort S27 0)
(declare-sort S28 0)
(declare-sort S29 0)
(declare-sort S30 0)
(declare-sort S31 0)
(declare-sort S32 0)
(declare-sort S33 0)
(declare-sort S34 0)
(declare-sort S35 0)
(declare-sort S36 0)
(declare-sort S37 0)
(declare-sort S38 0)
(declare-sort S39 0)
(declare-sort S40 0)
(declare-sort S41 0)
(declare-sort S42 0)
(declare-sort S43 0)
(declare-sort S44 0)
(declare-sort S45 0)
(declare-sort S46 0)
(declare-sort S47 0)
(declare-sort S48 0)
(declare-sort S49 0)
(declare-sort S50 0)
(declare-sort S51 0)
(declare-sort S52 0)
(declare-sort S53 0)
(declare-sort S54 0)
(declare-sort S55 0)
(declare-sort S56 0)
(declare-sort S57 0)
(declare-sort S58 0)
(declare-sort S59 0)
(declare-sort S60 0)
(declare-sort S61 0)
(declare-sort S62 0)
(declare-sort S63 0)
(declare-sort S64 0)
(declare-fun f1 () S1)
(declare-fun f2 () S1)
(declare-fun f3 () S1)
(declare-fun f4 (S4 S2) S1)
(declare-fun f5 (S5 S2) S4)
(declare-fun f6 () S5)
(declare-fun f7 (S6 S3) S2)
(declare-fun f8 () S6)
(declare-fun f9 () S2)
(declare-fun f10 (S7 S3) S3)
(declare-fun f11 (S8 S9) S7)
(declare-fun f12 () S8)
(declare-fun f13 () S9)
(declare-fun f14 () S5)
(declare-fun f15 () S2)
(declare-fun f16 (S11 S10) S1)
(declare-fun f17 (S12 S10) S11)
(declare-fun f18 () S12)
(declare-fun f19 (S14 S13) S15)
(declare-fun f20 () S14)
(declare-fun f21 (S17 S16) S18)
(declare-fun f22 () S17)
(declare-fun f23 (S20 S19) S21)
(declare-fun f24 () S20)
(declare-fun f25 (S23 S22) S24)
(declare-fun f26 () S23)
(declare-fun f27 (S21 S2) S2)
(declare-fun f28 () S21)
(declare-fun f29 () S12)
(declare-fun f30 () S9)
(declare-fun f31 () S3)
(declare-fun f32 (S25 S10) S10)
(declare-fun f33 (S26 S27) S25)
(declare-fun f34 () S26)
(declare-fun f35 () S27)
(declare-fun f36 () S10)
(declare-fun f37 (S24 S28) S28)
(declare-fun f38 () S22)
(declare-fun f39 () S28)
(declare-fun f40 () S19)
(declare-fun f41 (S30 S29) S29)
(declare-fun f42 (S31 S32) S30)
(declare-fun f43 () S31)
(declare-fun f44 () S32)
(declare-fun f45 () S29)
(declare-fun f46 (S33 S13) S13)
(declare-fun f47 (S34 S35) S33)
(declare-fun f48 () S34)
(declare-fun f49 () S35)
(declare-fun f50 () S13)
(declare-fun f51 (S36 S16) S16)
(declare-fun f52 (S37 S38) S36)
(declare-fun f53 () S37)
(declare-fun f54 () S38)
(declare-fun f55 () S16)
(declare-fun f56 (S40 S39) S39)
(declare-fun f57 (S41 S42) S40)
(declare-fun f58 () S41)
(declare-fun f59 () S42)
(declare-fun f60 () S39)
(declare-fun f61 (S43 S27) S27)
(declare-fun f62 (S44 S39) S43)
(declare-fun f63 () S44)
(declare-fun f64 (S18 S19) S19)
(declare-fun f65 (S15 S22) S22)
(declare-fun f66 (S45 S9) S9)
(declare-fun f67 (S46 S29) S45)
(declare-fun f68 () S46)
(declare-fun f69 (S47 S9) S10)
(declare-fun f70 (S48 S3) S47)
(declare-fun f71 () S48)
(declare-fun f72 (S49 S22) S10)
(declare-fun f73 (S50 S28) S49)
(declare-fun f74 () S50)
(declare-fun f75 (S51 S19) S10)
(declare-fun f76 (S52 S2) S51)
(declare-fun f77 () S52)
(declare-fun f78 (S53 S32) S10)
(declare-fun f79 (S54 S29) S53)
(declare-fun f80 () S54)
(declare-fun f81 (S55 S35) S10)
(declare-fun f82 (S56 S13) S55)
(declare-fun f83 () S56)
(declare-fun f84 (S57 S38) S10)
(declare-fun f85 (S58 S16) S57)
(declare-fun f86 () S58)
(declare-fun f87 (S59 S16) S10)
(declare-fun f88 (S60 S19) S59)
(declare-fun f89 () S60)
(declare-fun f90 (S61 S13) S10)
(declare-fun f91 (S62 S22) S61)
(declare-fun f92 () S62)
(declare-fun f93 (S63 S29) S10)
(declare-fun f94 (S64 S9) S63)
(declare-fun f95 () S64)
(assert (not (= f1 f2)))
(assert (not (= f3 f1)))
(assert (forall ((?v0 S2)) (=> (forall ((?v1 S3)) (=> (= (f4 (f5 f6 (f7 f8 ?v1)) f9) f1) (= (f4 (f5 f6 (f7 f8 (f10 (f11 f12 f13) ?v1))) ?v0) f1))) (= f3 f1))))
(assert (exists ((?v0 S2)) (and (= (f4 (f5 f14 f15) ?v0) f1) (forall ((?v1 S3)) (=> (= (f4 (f5 f6 (f7 f8 ?v1)) f9) f1) (= (f4 (f5 f6 (f7 f8 (f10 (f11 f12 f13) ?v1))) ?v0) f1))))))
(assert (exists ((?v0 S2)) (and (= (f4 (f5 f14 f15) ?v0) f1) (forall ((?v1 S3)) (=> (= (f4 (f5 f6 (f7 f8 ?v1)) f9) f1) (= (f4 (f5 f6 (f7 f8 (f10 (f11 f12 f13) ?v1))) ?v0) f1))))))
(assert (forall ((?v0 S10)) (= (f16 (f17 f18 ?v0) ?v0) f1)))
(assert (forall ((?v0 S2)) (= (f4 (f5 f6 ?v0) ?v0) f1)))
(assert (forall ((?v0 S9) (?v1 S9)) (= (= (f11 f12 ?v0) (f11 f12 ?v1)) (= ?v0 ?v1))))
(assert (forall ((?v0 S13) (?v1 S13)) (= (= (f19 f20 ?v0) (f19 f20 ?v1)) (= ?v0 ?v1))))
(assert (forall ((?v0 S16) (?v1 S16)) (= (= (f21 f22 ?v0) (f21 f22 ?v1)) (= ?v0 ?v1))))
(assert (forall ((?v0 S19) (?v1 S19)) (= (= (f23 f24 ?v0) (f23 f24 ?v1)) (= ?v0 ?v1))))
(assert (forall ((?v0 S22) (?v1 S22)) (= (= (f25 f26 ?v0) (f25 f26 ?v1)) (= ?v0 ?v1))))
(assert (forall ((?v0 S3)) (= (f4 (f5 f6 f15) (f7 f8 ?v0)) f1)))
(assert (forall ((?v0 S2)) (= (f4 (f5 f6 f15) (f27 f28 ?v0)) f1)))
(assert (forall ((?v0 S2)) (= (f4 (f5 f6 ?v0) ?v0) f1)))
(assert (forall ((?v0 S2) (?v1 S2)) (or (= (f4 (f5 f6 ?v0) ?v1) f1) (= (f4 (f5 f6 ?v1) ?v0) f1))))
(assert (forall ((?v0 S2) (?v1 S2) (?v2 S2)) (let ((?v_0 (f5 f6 ?v0))) (=> (= (f4 ?v_0 ?v1) f1) (=> (= (f4 (f5 f6 ?v1) ?v2) f1) (= (f4 ?v_0 ?v2) f1))))))
(assert (forall ((?v0 S2) (?v1 S2)) (=> (= (f4 (f5 f6 ?v0) ?v1) f1) (=> (= (f4 (f5 f6 ?v1) ?v0) f1) (= ?v0 ?v1)))))
(assert (forall ((?v0 S10) (?v1 S10)) (or (= (f16 (f17 f18 ?v0) ?v1) f1) (= (f16 (f17 f18 ?v1) ?v0) f1))))
(assert (forall ((?v0 S2) (?v1 S2)) (or (= (f4 (f5 f6 ?v0) ?v1) f1) (= (f4 (f5 f6 ?v1) ?v0) f1))))
(assert (forall ((?v0 S10) (?v1 S10)) (= (= ?v0 ?v1) (and (= (f16 (f17 f18 ?v0) ?v1) f1) (= (f16 (f17 f18 ?v1) ?v0) f1)))))
(assert (forall ((?v0 S2) (?v1 S2)) (= (= ?v0 ?v1) (and (= (f4 (f5 f6 ?v0) ?v1) f1) (= (f4 (f5 f6 ?v1) ?v0) f1)))))
(assert (forall ((?v0 S10) (?v1 S10)) (=> (= ?v0 ?v1) (= (f16 (f17 f18 ?v0) ?v1) f1))))
(assert (forall ((?v0 S2) (?v1 S2)) (=> (= ?v0 ?v1) (= (f4 (f5 f6 ?v0) ?v1) f1))))
(assert (forall ((?v0 S10)) (not (= (f16 (f17 f29 ?v0) ?v0) f1))))
(assert (forall ((?v0 S2)) (not (= (f4 (f5 f14 ?v0) ?v0) f1))))
(assert (forall ((?v0 S10) (?v1 S10)) (= (not (= ?v0 ?v1)) (or (= (f16 (f17 f29 ?v0) ?v1) f1) (= (f16 (f17 f29 ?v1) ?v0) f1)))))
(assert (forall ((?v0 S2) (?v1 S2)) (= (not (= ?v0 ?v1)) (or (= (f4 (f5 f14 ?v0) ?v1) f1) (= (f4 (f5 f14 ?v1) ?v0) f1)))))
(assert (forall ((?v0 S10) (?v1 S10)) (= (not (= (f16 (f17 f29 ?v0) ?v1) f1)) (or (= (f16 (f17 f29 ?v1) ?v0) f1) (= ?v0 ?v1)))))
(assert (forall ((?v0 S2) (?v1 S2)) (= (not (= (f4 (f5 f14 ?v0) ?v1) f1)) (or (= (f4 (f5 f14 ?v1) ?v0) f1) (= ?v0 ?v1)))))
(assert (forall ((?v0 S10) (?v1 S10)) (or (= (f16 (f17 f29 ?v0) ?v1) f1) (or (= ?v0 ?v1) (= (f16 (f17 f29 ?v1) ?v0) f1)))))
(assert (forall ((?v0 S2) (?v1 S2)) (or (= (f4 (f5 f14 ?v0) ?v1) f1) (or (= ?v0 ?v1) (= (f4 (f5 f14 ?v1) ?v0) f1)))))
(assert (forall ((?v0 S10) (?v1 S10)) (=> (not (= (f16 (f17 f29 ?v0) ?v1) f1)) (= (not (= (f16 (f17 f29 ?v1) ?v0) f1)) (= ?v1 ?v0)))))
(assert (forall ((?v0 S2) (?v1 S2)) (=> (not (= (f4 (f5 f14 ?v0) ?v1) f1)) (= (not (= (f4 (f5 f14 ?v1) ?v0) f1)) (= ?v1 ?v0)))))
(assert (forall ((?v0 S10) (?v1 S10)) (=> (not (= ?v0 ?v1)) (=> (=> (= (f16 (f17 f29 ?v0) ?v1) f1) false) (=> (=> (= (f16 (f17 f29 ?v1) ?v0) f1) false) false)))))
(assert (forall ((?v0 S2) (?v1 S2)) (=> (not (= ?v0 ?v1)) (=> (=> (= (f4 (f5 f14 ?v0) ?v1) f1) false) (=> (=> (= (f4 (f5 f14 ?v1) ?v0) f1) false) false)))))
(assert (forall ((?v0 S10) (?v1 S10)) (=> (= (f16 (f17 f29 ?v0) ?v1) f1) (not (= ?v0 ?v1)))))
(assert (forall ((?v0 S2) (?v1 S2)) (=> (= (f4 (f5 f14 ?v0) ?v1) f1) (not (= ?v0 ?v1)))))
(assert (forall ((?v0 S10) (?v1 S10)) (=> (= (f16 (f17 f29 ?v0) ?v1) f1) (not (= (f16 (f17 f29 ?v1) ?v0) f1)))))
(assert (forall ((?v0 S2) (?v1 S2)) (=> (= (f4 (f5 f14 ?v0) ?v1) f1) (not (= (f4 (f5 f14 ?v1) ?v0) f1)))))
(assert (forall ((?v0 S10) (?v1 S10)) (=> (= (f16 (f17 f29 ?v0) ?v1) f1) (= (not (= (f16 (f17 f29 ?v1) ?v0) f1)) true))))
(assert (forall ((?v0 S2) (?v1 S2)) (=> (= (f4 (f5 f14 ?v0) ?v1) f1) (= (not (= (f4 (f5 f14 ?v1) ?v0) f1)) true))))
(assert (forall ((?v0 S10) (?v1 S10)) (=> (= (f16 (f17 f29 ?v0) ?v1) f1) (= (= ?v0 ?v1) false))))
(assert (forall ((?v0 S2) (?v1 S2)) (=> (= (f4 (f5 f14 ?v0) ?v1) f1) (= (= ?v0 ?v1) false))))
(assert (forall ((?v0 S10) (?v1 S10)) (=> (= (f16 (f17 f29 ?v0) ?v1) f1) (= (= ?v1 ?v0) false))))
(assert (forall ((?v0 S2) (?v1 S2)) (=> (= (f4 (f5 f14 ?v0) ?v1) f1) (= (= ?v1 ?v0) false))))
(assert (forall ((?v0 S10) (?v1 S10) (?v2 S1)) (=> (= (f16 (f17 f29 ?v0) ?v1) f1) (= (=> (= (f16 (f17 f29 ?v1) ?v0) f1) (= ?v2 f1)) true))))
(assert (forall ((?v0 S2) (?v1 S2) (?v2 S1)) (=> (= (f4 (f5 f14 ?v0) ?v1) f1) (= (=> (= (f4 (f5 f14 ?v1) ?v0) f1) (= ?v2 f1)) true))))
(assert (forall ((?v0 S10) (?v1 S10)) (=> (= (f16 (f17 f29 ?v0) ?v1) f1) (=> (= (f16 (f17 f29 ?v1) ?v0) f1) false))))
(assert (forall ((?v0 S2) (?v1 S2)) (=> (= (f4 (f5 f14 ?v0) ?v1) f1) (=> (= (f4 (f5 f14 ?v1) ?v0) f1) false))))
(assert (forall ((?v0 S10) (?v1 S10)) (=> (= (f16 (f17 f29 ?v0) ?v1) f1) (=> (= (f16 (f17 f29 ?v1) ?v0) f1) false))))
(assert (forall ((?v0 S2) (?v1 S2)) (=> (= (f4 (f5 f14 ?v0) ?v1) f1) (=> (= (f4 (f5 f14 ?v1) ?v0) f1) false))))
(assert (forall ((?v0 S10) (?v1 S10) (?v2 S10)) (=> (= ?v0 ?v1) (=> (= (f16 (f17 f29 ?v1) ?v2) f1) (= (f16 (f17 f29 ?v0) ?v2) f1)))))
(assert (forall ((?v0 S2) (?v1 S2) (?v2 S2)) (=> (= ?v0 ?v1) (=> (= (f4 (f5 f14 ?v1) ?v2) f1) (= (f4 (f5 f14 ?v0) ?v2) f1)))))
(assert (forall ((?v0 S10) (?v1 S10) (?v2 S10)) (let ((?v_0 (f17 f29 ?v2))) (=> (= ?v0 ?v1) (=> (= (f16 ?v_0 ?v1) f1) (= (f16 ?v_0 ?v0) f1))))))
(assert (forall ((?v0 S2) (?v1 S2) (?v2 S2)) (let ((?v_0 (f5 f14 ?v2))) (=> (= ?v0 ?v1) (=> (= (f4 ?v_0 ?v1) f1) (= (f4 ?v_0 ?v0) f1))))))
(assert (forall ((?v0 S10) (?v1 S10) (?v2 S10)) (let ((?v_0 (f17 f29 ?v0))) (=> (= (f16 ?v_0 ?v1) f1) (=> (= ?v1 ?v2) (= (f16 ?v_0 ?v2) f1))))))
(assert (forall ((?v0 S2) (?v1 S2) (?v2 S2)) (let ((?v_0 (f5 f14 ?v0))) (=> (= (f4 ?v_0 ?v1) f1) (=> (= ?v1 ?v2) (= (f4 ?v_0 ?v2) f1))))))
(assert (forall ((?v0 S10) (?v1 S10) (?v2 S10)) (=> (= (f16 (f17 f29 ?v0) ?v1) f1) (=> (= ?v0 ?v2) (= (f16 (f17 f29 ?v2) ?v1) f1)))))
(assert (forall ((?v0 S2) (?v1 S2) (?v2 S2)) (=> (= (f4 (f5 f14 ?v0) ?v1) f1) (=> (= ?v0 ?v2) (= (f4 (f5 f14 ?v2) ?v1) f1)))))
(assert (forall ((?v0 S10) (?v1 S10) (?v2 S10)) (let ((?v_0 (f17 f29 ?v0))) (=> (= (f16 ?v_0 ?v1) f1) (=> (= (f16 (f17 f29 ?v1) ?v2) f1) (= (f16 ?v_0 ?v2) f1))))))
(assert (forall ((?v0 S2) (?v1 S2) (?v2 S2)) (let ((?v_0 (f5 f14 ?v0))) (=> (= (f4 ?v_0 ?v1) f1) (=> (= (f4 (f5 f14 ?v1) ?v2) f1) (= (f4 ?v_0 ?v2) f1))))))
(assert (forall ((?v0 S10) (?v1 S10) (?v2 S10)) (let ((?v_0 (f17 f29 ?v2))) (=> (= (f16 (f17 f29 ?v0) ?v1) f1) (=> (= (f16 ?v_0 ?v0) f1) (= (f16 ?v_0 ?v1) f1))))))
(assert (forall ((?v0 S2) (?v1 S2) (?v2 S2)) (let ((?v_0 (f5 f14 ?v2))) (=> (= (f4 (f5 f14 ?v0) ?v1) f1) (=> (= (f4 ?v_0 ?v0) f1) (= (f4 ?v_0 ?v1) f1))))))
(assert (forall ((?v0 S10) (?v1 S10)) (=> (= (f16 (f17 f29 ?v0) ?v1) f1) (=> (=> (not false) (= (f16 (f17 f29 ?v1) ?v0) f1)) false))))
(assert (forall ((?v0 S2) (?v1 S2)) (=> (= (f4 (f5 f14 ?v0) ?v1) f1) (=> (=> (not false) (= (f4 (f5 f14 ?v1) ?v0) f1)) false))))
(assert (forall ((?v0 S10) (?v1 S10)) (=> (=> (= (f16 (f17 f29 ?v0) ?v1) f1) false) (=> (=> (= ?v0 ?v1) false) (=> (=> (= (f16 (f17 f29 ?v1) ?v0) f1) false) false)))))
(assert (forall ((?v0 S2) (?v1 S2)) (=> (=> (= (f4 (f5 f14 ?v0) ?v1) f1) false) (=> (=> (= ?v0 ?v1) false) (=> (=> (= (f4 (f5 f14 ?v1) ?v0) f1) false) false)))))
(assert (forall ((?v0 S3)) (= (f10 (f11 f12 f30) ?v0) f31)))
(assert (forall ((?v0 S10)) (= (f32 (f33 f34 f35) ?v0) f36)))
(assert (forall ((?v0 S28)) (= (f37 (f25 f26 f38) ?v0) f39)))
(assert (forall ((?v0 S2)) (= (f27 (f23 f24 f40) ?v0) f15)))
(assert (forall ((?v0 S29)) (= (f41 (f42 f43 f44) ?v0) f45)))
(assert (forall ((?v0 S13)) (= (f46 (f47 f48 f49) ?v0) f50)))
(assert (forall ((?v0 S16)) (= (f51 (f52 f53 f54) ?v0) f55)))
(assert (forall ((?v0 S39)) (= (f56 (f57 f58 f59) ?v0) f60)))
(assert (forall ((?v0 S27)) (= (f61 (f62 f63 f60) ?v0) f35)))
(assert (forall ((?v0 S19)) (= (f64 (f21 f22 f55) ?v0) f40)))
(assert (forall ((?v0 S22)) (= (f65 (f19 f20 f50) ?v0) f38)))
(assert (forall ((?v0 S9)) (= (f66 (f67 f68 f45) ?v0) f30)))
(assert (forall ((?v0 S2)) (= (= (f4 (f5 f14 f15) (f27 f28 ?v0)) f1) (not (= ?v0 f15)))))
(assert (forall ((?v0 S3)) (= (= (f4 (f5 f14 f15) (f7 f8 ?v0)) f1) (not (= ?v0 f31)))))
(assert (forall ((?v0 S3)) (not (= (f4 (f5 f14 (f7 f8 ?v0)) f15) f1))))
(assert (forall ((?v0 S2)) (not (= (f4 (f5 f14 (f27 f28 ?v0)) f15) f1))))
(assert (forall ((?v0 S2)) (= (= (f27 f28 ?v0) f15) (= ?v0 f15))))
(assert (forall ((?v0 S3)) (= (= (f7 f8 ?v0) f15) (= ?v0 f31))))
(assert (= (f27 f28 f15) f15))
(assert (= (f7 f8 f31) f15))
(assert (forall ((?v0 S10) (?v1 S10) (?v2 S10)) (let ((?v_0 (f17 f29 ?v2))) (=> (= (f16 (f17 f18 ?v0) ?v1) f1) (=> (= (f16 ?v_0 ?v0) f1) (= (f16 ?v_0 ?v1) f1))))))
(assert (forall ((?v0 S2) (?v1 S2) (?v2 S2)) (let ((?v_0 (f5 f14 ?v2))) (=> (= (f4 (f5 f6 ?v0) ?v1) f1) (=> (= (f4 ?v_0 ?v0) f1) (= (f4 ?v_0 ?v1) f1))))))
(assert (forall ((?v0 S10) (?v1 S10) (?v2 S10)) (=> (= (f16 (f17 f18 ?v0) ?v1) f1) (=> (= (f16 (f17 f29 ?v1) ?v2) f1) (= (f16 (f17 f29 ?v0) ?v2) f1)))))
(assert (forall ((?v0 S2) (?v1 S2) (?v2 S2)) (=> (= (f4 (f5 f6 ?v0) ?v1) f1) (=> (= (f4 (f5 f14 ?v1) ?v2) f1) (= (f4 (f5 f14 ?v0) ?v2) f1)))))
(assert (forall ((?v0 S10) (?v1 S10) (?v2 S10)) (=> (= (f16 (f17 f29 ?v0) ?v1) f1) (=> (= (f16 (f17 f18 ?v2) ?v0) f1) (= (f16 (f17 f29 ?v2) ?v1) f1)))))
(assert (forall ((?v0 S2) (?v1 S2) (?v2 S2)) (=> (= (f4 (f5 f14 ?v0) ?v1) f1) (=> (= (f4 (f5 f6 ?v2) ?v0) f1) (= (f4 (f5 f14 ?v2) ?v1) f1)))))
(assert (forall ((?v0 S10) (?v1 S10) (?v2 S10)) (let ((?v_0 (f17 f29 ?v0))) (=> (= (f16 ?v_0 ?v1) f1) (=> (= (f16 (f17 f18 ?v1) ?v2) f1) (= (f16 ?v_0 ?v2) f1))))))
(assert (forall ((?v0 S2) (?v1 S2) (?v2 S2)) (let ((?v_0 (f5 f14 ?v0))) (=> (= (f4 ?v_0 ?v1) f1) (=> (= (f4 (f5 f6 ?v1) ?v2) f1) (= (f4 ?v_0 ?v2) f1))))))
(assert (forall ((?v0 S10) (?v1 S10)) (=> (= (f16 (f17 f18 ?v0) ?v1) f1) (=> (not (= ?v1 ?v0)) (= (f16 (f17 f29 ?v0) ?v1) f1)))))
(assert (forall ((?v0 S2) (?v1 S2)) (=> (= (f4 (f5 f6 ?v0) ?v1) f1) (=> (not (= ?v1 ?v0)) (= (f4 (f5 f14 ?v0) ?v1) f1)))))
(assert (forall ((?v0 S10) (?v1 S10)) (=> (= (f16 (f17 f18 ?v0) ?v1) f1) (=> (not (= ?v0 ?v1)) (= (f16 (f17 f29 ?v0) ?v1) f1)))))
(assert (forall ((?v0 S2) (?v1 S2)) (=> (= (f4 (f5 f6 ?v0) ?v1) f1) (=> (not (= ?v0 ?v1)) (= (f4 (f5 f14 ?v0) ?v1) f1)))))
(assert (forall ((?v0 S10) (?v1 S10)) (=> (= (f16 (f17 f18 ?v0) ?v1) f1) (or (= (f16 (f17 f29 ?v0) ?v1) f1) (= ?v0 ?v1)))))
(assert (forall ((?v0 S2) (?v1 S2)) (=> (= (f4 (f5 f6 ?v0) ?v1) f1) (or (= (f4 (f5 f14 ?v0) ?v1) f1) (= ?v0 ?v1)))))
(assert (forall ((?v0 S10) (?v1 S10)) (=> (= (f16 (f17 f18 ?v0) ?v1) f1) (= (not (= (f16 (f17 f29 ?v0) ?v1) f1)) (= ?v0 ?v1)))))
(assert (forall ((?v0 S2) (?v1 S2)) (=> (= (f4 (f5 f6 ?v0) ?v1) f1) (= (not (= (f4 (f5 f14 ?v0) ?v1) f1)) (= ?v0 ?v1)))))
(assert (forall ((?v0 S10) (?v1 S10)) (=> (= (f16 (f17 f29 ?v0) ?v1) f1) (= (f16 (f17 f18 ?v0) ?v1) f1))))
(assert (forall ((?v0 S2) (?v1 S2)) (=> (= (f4 (f5 f14 ?v0) ?v1) f1) (= (f4 (f5 f6 ?v0) ?v1) f1))))
(assert (forall ((?v0 S10) (?v1 S10)) (=> (= (f16 (f17 f18 ?v0) ?v1) f1) (not (= (f16 (f17 f29 ?v1) ?v0) f1)))))
(assert (forall ((?v0 S2) (?v1 S2)) (=> (= (f4 (f5 f6 ?v0) ?v1) f1) (not (= (f4 (f5 f14 ?v1) ?v0) f1)))))
(assert (forall ((?v0 S10) (?v1 S10)) (=> (not (= ?v0 ?v1)) (=> (= (f16 (f17 f18 ?v1) ?v0) f1) (= (f16 (f17 f29 ?v1) ?v0) f1)))))
(assert (forall ((?v0 S2) (?v1 S2)) (=> (not (= ?v0 ?v1)) (=> (= (f4 (f5 f6 ?v1) ?v0) f1) (= (f4 (f5 f14 ?v1) ?v0) f1)))))
(assert (forall ((?v0 S10) (?v1 S10)) (=> (not (= ?v0 ?v1)) (=> (= (f16 (f17 f18 ?v0) ?v1) f1) (= (f16 (f17 f29 ?v0) ?v1) f1)))))
(assert (forall ((?v0 S2) (?v1 S2)) (=> (not (= ?v0 ?v1)) (=> (= (f4 (f5 f6 ?v0) ?v1) f1) (= (f4 (f5 f14 ?v0) ?v1) f1)))))
(assert (forall ((?v0 S10) (?v1 S10)) (=> (not (= (f16 (f17 f29 ?v0) ?v1) f1)) (= (= (f16 (f17 f18 ?v0) ?v1) f1) (= ?v0 ?v1)))))
(assert (forall ((?v0 S2) (?v1 S2)) (=> (not (= (f4 (f5 f14 ?v0) ?v1) f1)) (= (= (f4 (f5 f6 ?v0) ?v1) f1) (= ?v0 ?v1)))))
(assert (forall ((?v0 S10) (?v1 S10)) (=> (not (= (f16 (f17 f18 ?v0) ?v1) f1)) (= (f16 (f17 f29 ?v1) ?v0) f1))))
(assert (forall ((?v0 S2) (?v1 S2)) (=> (not (= (f4 (f5 f6 ?v0) ?v1) f1)) (= (f4 (f5 f14 ?v1) ?v0) f1))))
(assert (forall ((?v0 S10) (?v1 S10)) (=> (not (= (f16 (f17 f29 ?v0) ?v1) f1)) (= (f16 (f17 f18 ?v1) ?v0) f1))))
(assert (forall ((?v0 S2) (?v1 S2)) (=> (not (= (f4 (f5 f14 ?v0) ?v1) f1)) (= (f4 (f5 f6 ?v1) ?v0) f1))))
(assert (forall ((?v0 S10) (?v1 S10)) (= (= (f16 (f17 f18 ?v0) ?v1) f1) (or (= (f16 (f17 f29 ?v0) ?v1) f1) (= ?v0 ?v1)))))
(assert (forall ((?v0 S2) (?v1 S2)) (= (= (f4 (f5 f6 ?v0) ?v1) f1) (or (= (f4 (f5 f14 ?v0) ?v1) f1) (= ?v0 ?v1)))))
(assert (forall ((?v0 S10) (?v1 S10)) (= (= (f16 (f17 f29 ?v0) ?v1) f1) (and (= (f16 (f17 f18 ?v0) ?v1) f1) (not (= (f16 (f17 f18 ?v1) ?v0) f1))))))
(assert (forall ((?v0 S2) (?v1 S2)) (= (= (f4 (f5 f14 ?v0) ?v1) f1) (and (= (f4 (f5 f6 ?v0) ?v1) f1) (not (= (f4 (f5 f6 ?v1) ?v0) f1))))))
(assert (forall ((?v0 S10) (?v1 S10)) (= (= (f16 (f17 f29 ?v0) ?v1) f1) (and (= (f16 (f17 f18 ?v0) ?v1) f1) (not (= ?v0 ?v1))))))
(assert (forall ((?v0 S2) (?v1 S2)) (= (= (f4 (f5 f14 ?v0) ?v1) f1) (and (= (f4 (f5 f6 ?v0) ?v1) f1) (not (= ?v0 ?v1))))))
(assert (forall ((?v0 S10) (?v1 S10)) (or (= (f16 (f17 f18 ?v0) ?v1) f1) (= (f16 (f17 f29 ?v1) ?v0) f1))))
(assert (forall ((?v0 S2) (?v1 S2)) (or (= (f4 (f5 f6 ?v0) ?v1) f1) (= (f4 (f5 f14 ?v1) ?v0) f1))))
(assert (forall ((?v0 S10) (?v1 S10)) (= (not (= (f16 (f17 f18 ?v0) ?v1) f1)) (= (f16 (f17 f29 ?v1) ?v0) f1))))
(assert (forall ((?v0 S2) (?v1 S2)) (= (not (= (f4 (f5 f6 ?v0) ?v1) f1)) (= (f4 (f5 f14 ?v1) ?v0) f1))))
(assert (forall ((?v0 S10) (?v1 S10)) (= (not (= (f16 (f17 f29 ?v0) ?v1) f1)) (= (f16 (f17 f18 ?v1) ?v0) f1))))
(assert (forall ((?v0 S2) (?v1 S2)) (= (not (= (f4 (f5 f14 ?v0) ?v1) f1)) (= (f4 (f5 f6 ?v1) ?v0) f1))))
(assert (forall ((?v0 S2) (?v1 S2)) (= (= (f4 (f5 f6 ?v0) ?v1) f1) (or (= (f4 (f5 f14 ?v0) ?v1) f1) (= ?v0 ?v1)))))
(assert (forall ((?v0 S2) (?v1 S2)) (= (= (f4 (f5 f14 ?v0) ?v1) f1) (and (= (f4 (f5 f6 ?v0) ?v1) f1) (not (= ?v0 ?v1))))))
(assert (forall ((?v0 S2)) (= (= (f4 (f5 f6 (f27 f28 ?v0)) f15) f1) (= ?v0 f15))))
(assert (forall ((?v0 S3)) (= (= (f4 (f5 f6 (f7 f8 ?v0)) f15) f1) (= ?v0 f31))))
(assert (forall ((?v0 S10) (?v1 S10)) (=> (=> (= (f16 (f17 f18 ?v0) ?v1) f1) false) (=> (=> (= (f16 (f17 f18 ?v1) ?v0) f1) false) false))))
(assert (forall ((?v0 S2) (?v1 S2)) (=> (=> (= (f4 (f5 f6 ?v0) ?v1) f1) false) (=> (=> (= (f4 (f5 f6 ?v1) ?v0) f1) false) false))))
(assert (forall ((?v0 S10) (?v1 S10) (?v2 S10)) (let ((?v_0 (f17 f18 ?v2))) (=> (= (f16 (f17 f18 ?v0) ?v1) f1) (=> (= (f16 ?v_0 ?v0) f1) (= (f16 ?v_0 ?v1) f1))))))
(assert (forall ((?v0 S2) (?v1 S2) (?v2 S2)) (let ((?v_0 (f5 f6 ?v2))) (=> (= (f4 (f5 f6 ?v0) ?v1) f1) (=> (= (f4 ?v_0 ?v0) f1) (= (f4 ?v_0 ?v1) f1))))))
(assert (forall ((?v0 S10) (?v1 S10)) (=> (= (f16 (f17 f18 ?v0) ?v1) f1) (=> (= (f16 (f17 f18 ?v1) ?v0) f1) (= ?v1 ?v0)))))
(assert (forall ((?v0 S2) (?v1 S2)) (=> (= (f4 (f5 f6 ?v0) ?v1) f1) (=> (= (f4 (f5 f6 ?v1) ?v0) f1) (= ?v1 ?v0)))))
(assert (forall ((?v0 S10) (?v1 S10) (?v2 S10)) (let ((?v_0 (f17 f18 ?v0))) (=> (= (f16 ?v_0 ?v1) f1) (=> (= (f16 (f17 f18 ?v1) ?v2) f1) (= (f16 ?v_0 ?v2) f1))))))
(assert (forall ((?v0 S2) (?v1 S2) (?v2 S2)) (let ((?v_0 (f5 f6 ?v0))) (=> (= (f4 ?v_0 ?v1) f1) (=> (= (f4 (f5 f6 ?v1) ?v2) f1) (= (f4 ?v_0 ?v2) f1))))))
(assert (forall ((?v0 S10) (?v1 S10)) (=> (= (f16 (f17 f18 ?v0) ?v1) f1) (=> (= (f16 (f17 f18 ?v1) ?v0) f1) (= ?v0 ?v1)))))
(assert (forall ((?v0 S2) (?v1 S2)) (=> (= (f4 (f5 f6 ?v0) ?v1) f1) (=> (= (f4 (f5 f6 ?v1) ?v0) f1) (= ?v0 ?v1)))))
(assert (forall ((?v0 S10) (?v1 S10) (?v2 S10)) (=> (= (f16 (f17 f18 ?v0) ?v1) f1) (=> (= ?v0 ?v2) (= (f16 (f17 f18 ?v2) ?v1) f1)))))
(assert (forall ((?v0 S2) (?v1 S2) (?v2 S2)) (=> (= (f4 (f5 f6 ?v0) ?v1) f1) (=> (= ?v0 ?v2) (= (f4 (f5 f6 ?v2) ?v1) f1)))))
(assert (forall ((?v0 S10) (?v1 S10) (?v2 S10)) (let ((?v_0 (f17 f18 ?v0))) (=> (= (f16 ?v_0 ?v1) f1) (=> (= ?v1 ?v2) (= (f16 ?v_0 ?v2) f1))))))
(assert (forall ((?v0 S2) (?v1 S2) (?v2 S2)) (let ((?v_0 (f5 f6 ?v0))) (=> (= (f4 ?v_0 ?v1) f1) (=> (= ?v1 ?v2) (= (f4 ?v_0 ?v2) f1))))))
(assert (forall ((?v0 S10) (?v1 S10) (?v2 S10)) (let ((?v_0 (f17 f18 ?v2))) (=> (= ?v0 ?v1) (=> (= (f16 ?v_0 ?v1) f1) (= (f16 ?v_0 ?v0) f1))))))
(assert (forall ((?v0 S2) (?v1 S2) (?v2 S2)) (let ((?v_0 (f5 f6 ?v2))) (=> (= ?v0 ?v1) (=> (= (f4 ?v_0 ?v1) f1) (= (f4 ?v_0 ?v0) f1))))))
(assert (forall ((?v0 S10) (?v1 S10) (?v2 S10)) (=> (= ?v0 ?v1) (=> (= (f16 (f17 f18 ?v1) ?v2) f1) (= (f16 (f17 f18 ?v0) ?v2) f1)))))
(assert (forall ((?v0 S2) (?v1 S2) (?v2 S2)) (=> (= ?v0 ?v1) (=> (= (f4 (f5 f6 ?v1) ?v2) f1) (= (f4 (f5 f6 ?v0) ?v2) f1)))))
(assert (forall ((?v0 S10) (?v1 S10)) (=> (= (f16 (f17 f18 ?v0) ?v1) f1) (= (= (f16 (f17 f18 ?v1) ?v0) f1) (= ?v1 ?v0)))))
(assert (forall ((?v0 S2) (?v1 S2)) (=> (= (f4 (f5 f6 ?v0) ?v1) f1) (= (= (f4 (f5 f6 ?v1) ?v0) f1) (= ?v1 ?v0)))))
(assert (forall ((?v0 S2) (?v1 S2)) (let ((?v_0 (f5 f14 f15))) (=> (= (f4 ?v_0 ?v0) f1) (=> (= (f4 ?v_0 ?v1) f1) (exists ((?v2 S2)) (let ((?v_1 (f5 f14 ?v2))) (and (= (f4 ?v_0 ?v2) f1) (and (= (f4 ?v_1 ?v0) f1) (= (f4 ?v_1 ?v1) f1))))))))))
(assert (forall ((?v0 S2) (?v1 S2) (?v2 S2)) (=> (= (f4 (f5 f14 ?v0) ?v1) f1) (=> (forall ((?v3 S2)) (=> (= (f4 (f5 f14 ?v0) ?v3) f1) (=> (= (f4 (f5 f14 ?v3) ?v1) f1) (= (f4 (f5 f6 ?v3) ?v2) f1)))) (= (f4 (f5 f6 ?v1) ?v2) f1)))))
(assert (forall ((?v0 S9)) (= (= (f11 f12 ?v0) (f11 f12 f30)) (= ?v0 f30))))
(assert (forall ((?v0 S13)) (= (= (f19 f20 ?v0) (f19 f20 f50)) (= ?v0 f50))))
(assert (forall ((?v0 S16)) (= (= (f21 f22 ?v0) (f21 f22 f55)) (= ?v0 f55))))
(assert (forall ((?v0 S19)) (= (= (f23 f24 ?v0) (f23 f24 f40)) (= ?v0 f40))))
(assert (forall ((?v0 S22)) (= (= (f25 f26 ?v0) (f25 f26 f38)) (= ?v0 f38))))
(assert (forall ((?v0 S2) (?v1 S2)) (=> (forall ((?v2 S2)) (=> (= (f4 (f5 f14 ?v2) ?v0) f1) (= (f4 (f5 f6 ?v2) ?v1) f1))) (= (f4 (f5 f6 ?v0) ?v1) f1))))
(assert (forall ((?v0 S9) (?v1 S3)) (= (= (f10 (f11 f12 ?v0) ?v1) f31) (or (= ?v0 f30) (not (= (f69 (f70 f71 ?v1) ?v0) f36))))))
(assert (forall ((?v0 S22) (?v1 S28)) (= (= (f37 (f25 f26 ?v0) ?v1) f39) (or (= ?v0 f38) (not (= (f72 (f73 f74 ?v1) ?v0) f36))))))
(assert (forall ((?v0 S19) (?v1 S2)) (= (= (f27 (f23 f24 ?v0) ?v1) f15) (or (= ?v0 f40) (not (= (f75 (f76 f77 ?v1) ?v0) f36))))))
(assert (forall ((?v0 S32) (?v1 S29)) (= (= (f41 (f42 f43 ?v0) ?v1) f45) (or (= ?v0 f44) (not (= (f78 (f79 f80 ?v1) ?v0) f36))))))
(assert (forall ((?v0 S35) (?v1 S13)) (= (= (f46 (f47 f48 ?v0) ?v1) f50) (or (= ?v0 f49) (not (= (f81 (f82 f83 ?v1) ?v0) f36))))))
(assert (forall ((?v0 S38) (?v1 S16)) (= (= (f51 (f52 f53 ?v0) ?v1) f55) (or (= ?v0 f54) (not (= (f84 (f85 f86 ?v1) ?v0) f36))))))
(assert (forall ((?v0 S16) (?v1 S19)) (= (= (f64 (f21 f22 ?v0) ?v1) f40) (or (= ?v0 f55) (not (= (f87 (f88 f89 ?v1) ?v0) f36))))))
(assert (forall ((?v0 S13) (?v1 S22)) (= (= (f65 (f19 f20 ?v0) ?v1) f38) (or (= ?v0 f50) (not (= (f90 (f91 f92 ?v1) ?v0) f36))))))
(assert (forall ((?v0 S29) (?v1 S9)) (= (= (f66 (f67 f68 ?v0) ?v1) f30) (or (= ?v0 f45) (not (= (f93 (f94 f95 ?v1) ?v0) f36))))))
(assert (forall ((?v0 S10) (?v1 S25) (?v2 S10) (?v3 S10)) (=> (= ?v0 (f32 ?v1 ?v2)) (=> (= (f16 (f17 f29 ?v3) ?v2) f1) (=> (forall ((?v4 S10) (?v5 S10)) (=> (= (f16 (f17 f29 ?v5) ?v4) f1) (= (f16 (f17 f29 (f32 ?v1 ?v5)) (f32 ?v1 ?v4)) f1))) (= (f16 (f17 f29 (f32 ?v1 ?v3)) ?v0) f1))))))
(assert (forall ((?v0 S2) (?v1 S21) (?v2 S2) (?v3 S2)) (=> (= ?v0 (f27 ?v1 ?v2)) (=> (= (f4 (f5 f14 ?v3) ?v2) f1) (=> (forall ((?v4 S2) (?v5 S2)) (=> (= (f4 (f5 f14 ?v5) ?v4) f1) (= (f4 (f5 f14 (f27 ?v1 ?v5)) (f27 ?v1 ?v4)) f1))) (= (f4 (f5 f14 (f27 ?v1 ?v3)) ?v0) f1))))))
(assert (forall ((?v0 S10)) (= (f16 (f17 f18 f36) ?v0) f1)))
(assert (forall ((?v0 S10)) (=> (= (f16 (f17 f29 ?v0) f36) f1) false)))
(assert (forall ((?v0 S2)) (exists ((?v1 S2)) (= (f4 (f5 f14 ?v0) ?v1) f1))))
(assert (forall ((?v0 S2)) (exists ((?v1 S2)) (= (f4 (f5 f14 ?v1) ?v0) f1))))
(assert (forall ((?v0 S2) (?v1 S2)) (=> (= (f4 (f5 f14 ?v0) ?v1) f1) (exists ((?v2 S2)) (and (= (f4 (f5 f14 ?v0) ?v2) f1) (= (f4 (f5 f14 ?v2) ?v1) f1))))))
(assert (forall ((?v0 S10)) (not (= (f16 (f17 f29 ?v0) ?v0) f1))))
(assert (forall ((?v0 S10) (?v1 S10)) (= (not (= ?v0 ?v1)) (or (= (f16 (f17 f29 ?v0) ?v1) f1) (= (f16 (f17 f29 ?v1) ?v0) f1)))))
(assert (forall ((?v0 S10) (?v1 S10)) (= (= (f16 (f17 f29 ?v0) ?v1) f1) (and (= (f16 (f17 f18 ?v0) ?v1) f1) (not (= ?v0 ?v1))))))
(assert (forall ((?v0 S10) (?v1 S10)) (= (= (f16 (f17 f18 ?v0) ?v1) f1) (or (= (f16 (f17 f29 ?v0) ?v1) f1) (= ?v0 ?v1)))))
(assert (forall ((?v0 S10) (?v1 S10)) (=> (not (= ?v0 ?v1)) (=> (=> (= (f16 (f17 f29 ?v0) ?v1) f1) false) (=> (=> (= (f16 (f17 f29 ?v1) ?v0) f1) false) false)))))
(assert (forall ((?v0 S10)) (=> (= (f16 (f17 f29 ?v0) ?v0) f1) false)))
(assert (forall ((?v0 S10) (?v1 S10)) (=> (= (f16 (f17 f29 ?v0) ?v1) f1) (not (= ?v1 ?v0)))))
(assert (forall ((?v0 S10) (?v1 S10)) (=> (= (f16 (f17 f29 ?v0) ?v1) f1) (not (= ?v0 ?v1)))))
(assert (forall ((?v0 S10) (?v1 S10)) (=> (= (f16 (f17 f29 ?v0) ?v1) f1) (= (f16 (f17 f18 ?v0) ?v1) f1))))
(assert (forall ((?v0 S10) (?v1 S10)) (=> (= (f16 (f17 f18 ?v0) ?v1) f1) (=> (not (= ?v0 ?v1)) (= (f16 (f17 f29 ?v0) ?v1) f1)))))
(assert (forall ((?v0 S10) (?v1 S10)) (=> (or (= (f16 (f17 f29 ?v0) ?v1) f1) (= ?v0 ?v1)) (= (f16 (f17 f18 ?v0) ?v1) f1))))
(assert (forall ((?v0 S10) (?v1 S10) (?v2 S12)) (let ((?v_0 (= (f16 (f17 ?v2 ?v1) ?v0) f1))) (=> (=> (= (f16 (f17 f29 ?v0) ?v1) f1) ?v_0) (=> (=> (= ?v0 ?v1) ?v_0) (=> (=> (= (f16 (f17 f29 ?v1) ?v0) f1) ?v_0) ?v_0))))))
(assert (forall ((?v0 S10)) (= (f16 (f17 f18 ?v0) ?v0) f1)))
(assert (forall ((?v0 S10) (?v1 S10)) (or (= (f16 (f17 f18 ?v0) ?v1) f1) (= (f16 (f17 f18 ?v1) ?v0) f1))))
(assert (forall ((?v0 S10) (?v1 S10)) (=> (= ?v0 ?v1) (= (f16 (f17 f18 ?v0) ?v1) f1))))
(assert (forall ((?v0 S10) (?v1 S10) (?v2 S10)) (let ((?v_0 (f17 f18 ?v0))) (=> (= (f16 ?v_0 ?v1) f1) (=> (= (f16 (f17 f18 ?v1) ?v2) f1) (= (f16 ?v_0 ?v2) f1))))))
(assert (forall ((?v0 S10) (?v1 S10)) (=> (= (f16 (f17 f18 ?v0) ?v1) f1) (=> (= (f16 (f17 f18 ?v1) ?v0) f1) (= ?v0 ?v1)))))
(assert (forall ((?v0 S10)) (=> (=> (= ?v0 f36) false) (= (f16 (f17 f29 f36) ?v0) f1))))
(assert (forall ((?v0 S10) (?v1 S10)) (=> (= (f16 (f17 f29 ?v0) ?v1) f1) (not (= ?v1 f36)))))
(assert (forall ((?v0 S10)) (= (= (f16 (f17 f18 ?v0) f36) f1) (= ?v0 f36))))
(assert (forall ((?v0 S10)) (= (= (f16 (f17 f29 ?v0) f36) f1) false)))
(assert (forall ((?v0 S10)) (= (= (f16 (f17 f18 f36) ?v0) f1) true)))
(assert (forall ((?v0 S10)) (= (not (= ?v0 f36)) (= (f16 (f17 f29 f36) ?v0) f1))))
(assert (forall ((?v0 S10)) (not (= (f16 (f17 f29 ?v0) f36) f1))))
(assert (forall ((?v0 S11) (?v1 S10)) (=> (not (= (f16 ?v0 f36) f1)) (=> (= (f16 ?v0 ?v1) f1) (exists ((?v2 S10)) (and (= (f16 (f17 f18 ?v2) ?v1) f1) (and (forall ((?v3 S10)) (=> (= (f16 (f17 f29 ?v3) ?v2) f1) (not (= (f16 ?v0 ?v3) f1)))) (= (f16 ?v0 ?v2) f1))))))))
(check-sat)
(exit)
